Route #1: 0 26 23 34 16 7 2 14 3 28 0
Route #2: 0 15 20 8 19 33 25 35 12 0
Route #3: 0 29 13 0
Route #4: 0 5 38 4 10 27 22 21 17 1 0
Route #5: 0 11 36 18 32 31 37 30 0
Route #6: 0 24 9 6 0
Cost 1255:
